(set-info :source |printed by MathSAT|)
(declare-fun |.x{429}| () Int)
(declare-fun |.x{1067}| () Int)
(declare-fun |.x{430}| () Int)
(declare-fun |.x{1068}| () Int)
(declare-fun |.x{431}| () Int)
(declare-fun |.x{1069}| () Int)
(declare-fun |.x{432}| () (Array Int Int))
(declare-fun |.x{1070}| () (Array Int Int))
(declare-fun |.x{433}| () (Array Int Int))
(declare-fun |.x{1071}| () (Array Int Int))
(declare-fun |.x{434}| () (Array Int (Array Int Int)))
(declare-fun |.x{1072}| () (Array Int (Array Int Int)))
(declare-fun |.x{435}| () (Array Int (Array Int Int)))
(declare-fun |.x{1073}| () (Array Int (Array Int Int)))
(declare-fun |.x{436}| () Int)
(declare-fun |.x{1074}| () Int)
(declare-fun |.x{437}| () Int)
(declare-fun |.x{1075}| () Int)
(declare-fun |.x{438}| () Int)
(declare-fun |.x{1076}| () Int)
(declare-fun |.x{439}| () Int)
(declare-fun |.x{1077}| () Int)
(declare-fun |.x{440}| () (Array Int Int))
(declare-fun |.x{1078}| () (Array Int Int))
(declare-fun |.x{441}| () (Array Int Int))
(declare-fun |.x{1079}| () (Array Int Int))
(declare-fun |.x{442}| () Int)
(declare-fun |.x{1080}| () Int)
(declare-fun |.x{443}| () Int)
(declare-fun |.x{1081}| () Int)
(declare-fun |.x{444}| () Int)
(declare-fun |.x{1082}| () Int)
(declare-fun |.x{445}| () Int)
(declare-fun |.x{1083}| () Int)
(declare-fun |.x{446}| () Int)
(declare-fun |.x{1084}| () Int)
(declare-fun |.x{447}| () Int)
(declare-fun |.x{1085}| () Int)
(declare-fun |.x{486}| () Int)
(declare-fun |.x{1086}| () Int)
(declare-fun |.x{449}| () Int)
(declare-fun |.x{1087}| () Int)
(declare-fun |.x{450}| () Int)
(declare-fun |.x{1088}| () Int)
(declare-fun |.x{451}| () Int)
(declare-fun |.x{1089}| () Int)
(declare-fun |.x{452}| () Int)
(declare-fun |.x{1090}| () Int)
(declare-fun |.x{453}| () Int)
(declare-fun |.x{1091}| () Int)
(declare-fun |.x{454}| () Int)
(declare-fun |.x{1092}| () Int)
(declare-fun |.x{455}| () Int)
(declare-fun |.x{1093}| () Int)
(declare-fun |.x{456}| () Int)
(declare-fun |.x{1094}| () Int)
(declare-fun |.x{457}| () Int)
(declare-fun |.x{1095}| () Int)
(declare-fun |.x{458}| () Int)
(declare-fun |.x{1096}| () Int)
(declare-fun |.x{459}| () Int)
(declare-fun |.x{1097}| () Int)
(declare-fun |.x{460}| () Int)
(declare-fun |.x{1098}| () Int)
(declare-fun |.x{461}| () Int)
(declare-fun |.x{1099}| () Int)
(declare-fun |.x{462}| () Int)
(declare-fun |.x{1100}| () Int)
(declare-fun |.x{463}| () Int)
(declare-fun |.x{1101}| () Int)
(declare-fun |.x{464}| () Int)
(declare-fun |.x{1102}| () Int)
(declare-fun |.x{503}| () Int)
(declare-fun |.x{1103}| () Int)
(declare-fun |.x{466}| () Bool)
(declare-fun |.x{1028}| () Bool)
(declare-fun |.loc{4}| () Bool)
(declare-fun |.loc{7}| () Bool)
(declare-fun |.loc{5}| () Bool)
(declare-fun |.loc{8}| () Bool)
(declare-fun |.loc{6}| () Bool)
(declare-fun |.loc{9}| () Bool)
(declare-fun |.x{151}| () (Array Int Int))
(declare-fun |.x{157}| () Int)
(declare-fun |.x{149}| () Int)
(define-fun .def_86 () Bool (! |.loc{5}| :next |.loc{8}|))
(define-fun .def_273 () Bool (not .def_86))
(define-fun .def_84 () Bool (! |.loc{4}| :next |.loc{7}|))
(define-fun .def_467 () Bool (and .def_84 .def_273))
(define-fun .def_88 () Bool (! |.loc{6}| :next |.loc{9}|))
(define-fun .def_434 () Bool (not .def_88))
(define-fun .def_468 () Bool (and .def_434 .def_467))
(define-fun .def_36 () Int (! |.x{443}| :next |.x{1081}|))
(define-fun .def_34 () Int (! |.x{442}| :next |.x{1080}|))
(define-fun .def_459 () Bool (= .def_34 .def_36))
(define-fun .def_32 () (Array Int Int) (! |.x{441}| :next |.x{1079}|))
(define-fun .def_30 () (Array Int Int) (! |.x{440}| :next |.x{1078}|))
(define-fun .def_458 () Bool (= .def_30 .def_32))
(define-fun .def_460 () Bool (and .def_458 .def_459))
(define-fun .def_24 () Int (! |.x{437}| :next |.x{1075}|))
(define-fun .def_22 () Int (! |.x{436}| :next |.x{1074}|))
(define-fun .def_457 () Bool (= .def_22 .def_24))
(define-fun .def_461 () Bool (and .def_457 .def_460))
(define-fun .def_28 () Int (! |.x{439}| :next |.x{1077}|))
(define-fun .def_26 () Int (! |.x{438}| :next |.x{1076}|))
(define-fun .def_456 () Bool (= .def_26 .def_28))
(define-fun .def_462 () Bool (and .def_456 .def_461))
(define-fun .def_12 () Int (! |.x{431}| :next |.x{1069}|))
(define-fun .def_10 () Int (! |.x{430}| :next |.x{1068}|))
(define-fun .def_455 () Bool (= .def_10 .def_12))
(define-fun .def_463 () Bool (and .def_455 .def_462))
(define-fun .def_82 () Bool (! |.x{466}| :next |.x{1028}|))
(define-fun .def_454 () Bool (not .def_82))
(define-fun .def_464 () Bool (and .def_454 .def_463))
(define-fun .def_20 () (Array Int (Array Int Int)) (! |.x{435}| :next |.x{1073}|))
(define-fun .def_18 () (Array Int (Array Int Int)) (! |.x{434}| :next |.x{1072}|))
(define-fun .def_453 () Bool (= .def_18 .def_20))
(define-fun .def_465 () Bool (and .def_453 .def_464))
(define-fun .def_16 () (Array Int Int) (! |.x{433}| :next |.x{1071}|))
(define-fun .def_14 () (Array Int Int) (! |.x{432}| :next |.x{1070}|))
(define-fun .def_452 () Bool (= .def_14 .def_16))
(define-fun .def_466 () Bool (and .def_452 .def_465))
(define-fun .def_469 () Bool (! (and .def_466 .def_468) :init true))
(define-fun .def_449 () Bool (= .def_36 |.x{1081}|))
(define-fun .def_447 () Bool (= .def_32 |.x{1079}|))
(define-fun .def_445 () Bool (= .def_28 |.x{1077}|))
(define-fun .def_443 () Bool (= .def_24 |.x{1075}|))
(define-fun .def_441 () Bool (= .def_20 |.x{1073}|))
(define-fun .def_439 () Bool (= .def_16 |.x{1071}|))
(define-fun .def_437 () Bool (= .def_12 |.x{1069}|))
(define-fun .def_8 () Int (! |.x{429}| :next |.x{1067}|))
(define-fun .def_435 () Bool (= .def_8 |.x{1067}|))
(define-fun .def_436 () Bool (and .def_434 .def_435))
(define-fun .def_438 () Bool (and .def_436 .def_437))
(define-fun .def_440 () Bool (and .def_438 .def_439))
(define-fun .def_442 () Bool (and .def_440 .def_441))
(define-fun .def_444 () Bool (and .def_442 .def_443))
(define-fun .def_446 () Bool (and .def_444 .def_445))
(define-fun .def_448 () Bool (and .def_446 .def_447))
(define-fun .def_450 () Bool (and .def_448 .def_449))
(define-fun .def_42 () Int (! |.x{446}| :next |.x{1084}|))
(define-fun .def_94 () Bool (= .def_42 |.x{1084}|))
(define-fun .def_38 () Int (! |.x{444}| :next |.x{1082}|))
(define-fun .def_91 () Bool (= .def_38 |.x{1082}|))
(define-fun .def_413 () Bool (and .def_91 .def_94))
(define-fun .def_201 () Bool (= |.x{1086}| 0))
(define-fun .def_405 () Bool (or .def_82 .def_201))
(define-fun .def_40 () Int (! |.x{445}| :next |.x{1083}|))
(define-fun .def_90 () Bool (= .def_40 |.x{1083}|))
(define-fun .def_396 () Bool (and |.x{1028}| .def_90))
(define-fun .def_397 () Bool (and |.x{1028}| .def_396))
(define-fun .def_50 () Int (! |.x{450}| :next |.x{1088}|))
(define-fun .def_101 () Bool (= .def_50 |.x{1088}|))
(define-fun .def_398 () Bool (and .def_101 .def_397))
(define-fun .def_110 () Bool (not .def_84))
(define-fun .def_399 () Bool (and .def_110 .def_398))
(define-fun .def_62 () Int (! |.x{456}| :next |.x{1094}|))
(define-fun .def_116 () Bool (= .def_62 |.x{1094}|))
(define-fun .def_400 () Bool (and .def_116 .def_399))
(define-fun .def_66 () Int (! |.x{458}| :next |.x{1096}|))
(define-fun .def_122 () Bool (= .def_66 |.x{1096}|))
(define-fun .def_401 () Bool (and .def_122 .def_400))
(define-fun .def_402 () Bool (and .def_122 .def_401))
(define-fun .def_70 () Int (! |.x{460}| :next |.x{1098}|))
(define-fun .def_128 () Bool (= .def_70 |.x{1098}|))
(define-fun .def_403 () Bool (and .def_128 .def_402))
(define-fun .def_78 () Int (! |.x{464}| :next |.x{1102}|))
(define-fun .def_136 () Bool (= .def_78 |.x{1102}|))
(define-fun .def_404 () Bool (and .def_136 .def_403))
(define-fun .def_406 () Bool (and .def_404 .def_405))
(define-fun .def_58 () Int (! |.x{454}| :next |.x{1092}|))
(define-fun .def_149 () Bool (= .def_38 .def_58))
(define-fun .def_144 () Bool (= .def_26 .def_58))
(define-fun .def_44 () Int (! |.x{447}| :next |.x{1085}|))
(define-fun .def_143 () Bool (<= .def_44 .def_10))
(define-fun .def_145 () Bool (and .def_143 .def_144))
(define-fun .def_146 () Int (ite .def_145 1 0))
(define-fun .def_147 () Bool (= |.x{1103}| .def_146))
(define-fun .def_56 () Int (! |.x{453}| :next |.x{1091}|))
(define-fun .def_139 () Bool (<= .def_44 .def_56))
(define-fun .def_138 () Bool (= |.x{1086}| |.x{1103}|))
(define-fun .def_140 () Bool (and .def_138 .def_139))
(define-fun .def_148 () Bool (and .def_140 .def_147))
(define-fun .def_150 () Bool (and .def_148 .def_149))
(define-fun .def_151 () Bool (or .def_82 .def_150))
(define-fun .def_407 () Bool (and .def_151 .def_406))
(define-fun .def_155 () Bool (= .def_14 |.x{1070}|))
(define-fun .def_408 () Bool (and .def_155 .def_407))
(define-fun .def_393 () Bool (= |.x{1088}| 0))
(define-fun .def_394 () Bool (or .def_82 .def_393))
(define-fun .def_386 () Bool (<= (- 2147483648) |.x{1088}|))
(define-fun .def_383 () Bool (<= |.x{1088}| 2147483647))
(define-fun .def_379 () (Array Int Int) (store .def_14 .def_62 0))
(define-fun .def_380 () Bool (= |.x{1070}| .def_379))
(define-fun .def_378 () Bool (= |.x{1102}| 0))
(define-fun .def_381 () Bool (and .def_378 .def_380))
(define-fun .def_384 () Bool (and .def_381 .def_383))
(define-fun .def_387 () Bool (and .def_384 .def_386))
(define-fun .def_388 () Bool (or |.x{1028}| .def_387))
(define-fun .def_375 () Bool (= |.x{1098}| |.x{1102}|))
(define-fun .def_376 () Bool (or |.x{1028}| .def_375))
(define-fun .def_377 () Bool (and .def_84 .def_376))
(define-fun .def_389 () Bool (and .def_377 .def_388))
(define-fun .def_189 () Bool (= .def_82 |.x{1028}|))
(define-fun .def_390 () Bool (and .def_189 .def_389))
(define-fun .def_80 () Int (! |.x{503}| :next |.x{1103}|))
(define-fun .def_215 () Bool (= .def_80 |.x{1103}|))
(define-fun .def_391 () Bool (and .def_215 .def_390))
(define-fun .def_46 () Int (! |.x{486}| :next |.x{1086}|))
(define-fun .def_218 () Bool (= .def_46 |.x{1086}|))
(define-fun .def_392 () Bool (and .def_218 .def_391))
(define-fun .def_395 () Bool (and .def_392 .def_394))
(define-fun .def_409 () Bool (or .def_395 .def_408))
(define-fun .def_97 () Bool (= .def_44 |.x{1085}|))
(define-fun .def_369 () Bool (and .def_86 .def_97))
(define-fun .def_112 () Bool (= .def_58 |.x{1092}|))
(define-fun .def_370 () Bool (and .def_112 .def_369))
(define-fun .def_64 () Int (! |.x{457}| :next |.x{1095}|))
(define-fun .def_118 () Bool (= .def_64 |.x{1095}|))
(define-fun .def_371 () Bool (and .def_118 .def_370))
(define-fun .def_372 () Bool (and |.loc{9}| .def_371))
(define-fun .def_124 () Bool (not |.loc{8}|))
(define-fun .def_373 () Bool (and .def_124 .def_372))
(define-fun .def_74 () Int (! |.x{462}| :next |.x{1100}|))
(define-fun .def_132 () Bool (= .def_74 |.x{1100}|))
(define-fun .def_374 () Bool (and .def_132 .def_373))
(define-fun .def_410 () Bool (and .def_374 .def_409))
(define-fun .def_159 () Bool (= .def_18 |.x{1072}|))
(define-fun .def_411 () Bool (and .def_159 .def_410))
(define-fun .def_363 () (Array Int Int) (select .def_18 .def_58))
(define-fun .def_364 () (Array Int Int) (store .def_363 .def_44 1))
(define-fun .def_365 () (Array Int (Array Int Int)) (store .def_18 .def_58 .def_364))
(define-fun .def_366 () Bool (= |.x{1072}| .def_365))
(define-fun .def_367 () Bool (or .def_82 .def_366))
(define-fun .def_357 () Int (* (- 1) |.x{1085}|))
(define-fun .def_358 () Int (+ .def_44 .def_357))
(define-fun .def_359 () Bool (= .def_358 (- 4)))
(define-fun .def_360 () Bool (and .def_112 .def_359))
(define-fun .def_361 () Bool (or |.x{1028}| .def_360))
(define-fun .def_344 () Bool (and .def_90 .def_101))
(define-fun .def_345 () Bool (and .def_110 .def_344))
(define-fun .def_346 () Bool (and .def_116 .def_345))
(define-fun .def_347 () Bool (and |.loc{8}| .def_346))
(define-fun .def_348 () Bool (and .def_122 .def_347))
(define-fun .def_349 () Bool (and .def_128 .def_348))
(define-fun .def_350 () Bool (and .def_189 .def_349))
(define-fun .def_351 () Bool (and .def_215 .def_350))
(define-fun .def_352 () Bool (and .def_218 .def_351))
(define-fun .def_353 () Bool (and .def_136 .def_352))
(define-fun .def_354 () Bool (and .def_155 .def_353))
(define-fun .def_157 () Bool (not |.loc{9}|))
(define-fun .def_355 () Bool (and .def_157 .def_354))
(define-fun .def_356 () Bool (and .def_273 .def_355))
(define-fun .def_362 () Bool (and .def_356 .def_361))
(define-fun .def_368 () Bool (and .def_362 .def_367))
(define-fun .def_412 () Bool (or .def_368 .def_411))
(define-fun .def_414 () Bool (and .def_412 .def_413))
(define-fun .def_48 () Int (! |.x{449}| :next |.x{1087}|))
(define-fun .def_99 () Bool (= .def_48 |.x{1087}|))
(define-fun .def_415 () Bool (and .def_99 .def_414))
(define-fun .def_52 () Int (! |.x{451}| :next |.x{1089}|))
(define-fun .def_103 () Bool (= .def_52 |.x{1089}|))
(define-fun .def_416 () Bool (and .def_103 .def_415))
(define-fun .def_54 () Int (! |.x{452}| :next |.x{1090}|))
(define-fun .def_105 () Bool (= .def_54 |.x{1090}|))
(define-fun .def_417 () Bool (and .def_105 .def_416))
(define-fun .def_108 () Bool (= .def_56 |.x{1091}|))
(define-fun .def_418 () Bool (and .def_108 .def_417))
(define-fun .def_60 () Int (! |.x{455}| :next |.x{1093}|))
(define-fun .def_114 () Bool (= .def_60 |.x{1093}|))
(define-fun .def_419 () Bool (and .def_114 .def_418))
(define-fun .def_68 () Int (! |.x{459}| :next |.x{1097}|))
(define-fun .def_126 () Bool (= .def_68 |.x{1097}|))
(define-fun .def_420 () Bool (and .def_126 .def_419))
(define-fun .def_72 () Int (! |.x{461}| :next |.x{1099}|))
(define-fun .def_130 () Bool (= .def_72 |.x{1099}|))
(define-fun .def_421 () Bool (and .def_130 .def_420))
(define-fun .def_76 () Int (! |.x{463}| :next |.x{1101}|))
(define-fun .def_134 () Bool (= .def_76 |.x{1101}|))
(define-fun .def_422 () Bool (and .def_134 .def_421))
(define-fun .def_153 () Bool (= .def_10 |.x{1068}|))
(define-fun .def_423 () Bool (and .def_153 .def_422))
(define-fun .def_161 () Bool (= .def_22 |.x{1074}|))
(define-fun .def_424 () Bool (and .def_161 .def_423))
(define-fun .def_163 () Bool (= .def_26 |.x{1076}|))
(define-fun .def_425 () Bool (and .def_163 .def_424))
(define-fun .def_165 () Bool (= .def_30 |.x{1078}|))
(define-fun .def_426 () Bool (and .def_165 .def_425))
(define-fun .def_167 () Bool (= .def_34 |.x{1080}|))
(define-fun .def_427 () Bool (and .def_167 .def_426))
(define-fun .def_340 () Bool (= |.x{149}| 0))
(define-fun .def_335 () Bool (= |.x{157}| 0))
(define-fun .def_333 () Bool (= |.x{1074}| 0))
(define-fun .def_336 () Bool (and .def_333 .def_335))
(define-fun .def_332 () Bool (= |.x{1080}| 0))
(define-fun .def_337 () Bool (and .def_332 .def_336))
(define-fun .def_330 () (Array Int Int) (store .def_14 0 0))
(define-fun .def_331 () Bool (= |.x{151}| .def_330))
(define-fun .def_338 () Bool (and .def_331 .def_337))
(define-fun .def_341 () Bool (and .def_338 .def_340))
(define-fun .def_342 () Bool (or .def_82 .def_341))
(define-fun .def_318 () Bool (<= |.x{1067}| |.x{1094}|))
(define-fun .def_319 () Bool (not .def_318))
(define-fun .def_305 () (Array Int Int) (store .def_30 |.x{1094}| 8))
(define-fun .def_306 () Bool (= |.x{1078}| .def_305))
(define-fun .def_303 () Bool (= |.x{1076}| |.x{1094}|))
(define-fun .def_307 () Bool (and .def_303 .def_306))
(define-fun .def_302 () Bool (= |.x{1085}| |.x{1089}|))
(define-fun .def_308 () Bool (and .def_302 .def_307))
(define-fun .def_301 () Bool (= |.x{1082}| |.x{1084}|))
(define-fun .def_309 () Bool (and .def_301 .def_308))
(define-fun .def_300 () Bool (= |.x{1087}| |.x{1089}|))
(define-fun .def_310 () Bool (and .def_300 .def_309))
(define-fun .def_299 () Bool (= |.x{1093}| |.x{1099}|))
(define-fun .def_311 () Bool (and .def_299 .def_310))
(define-fun .def_298 () Bool (= |.x{1084}| |.x{1090}|))
(define-fun .def_312 () Bool (and .def_298 .def_311))
(define-fun .def_297 () Bool (= |.x{1091}| |.x{1099}|))
(define-fun .def_313 () Bool (and .def_297 .def_312))
(define-fun .def_296 () Bool (= |.x{1097}| |.x{1101}|))
(define-fun .def_314 () Bool (and .def_296 .def_313))
(define-fun .def_295 () Bool (= |.x{1094}| |.x{1097}|))
(define-fun .def_315 () Bool (and .def_295 .def_314))
(define-fun .def_294 () Bool (= |.x{1090}| |.x{1094}|))
(define-fun .def_316 () Bool (and .def_294 .def_315))
(define-fun .def_292 () Int (select |.x{151}| |.x{1094}|))
(define-fun .def_293 () Bool (= .def_292 0))
(define-fun .def_317 () Bool (and .def_293 .def_316))
(define-fun .def_320 () Bool (and .def_317 .def_319))
(define-fun .def_291 () Bool (= |.x{1083}| 0))
(define-fun .def_321 () Bool (and .def_291 .def_320))
(define-fun .def_288 () Int (* (- 1) |.x{1093}|))
(define-fun .def_289 () Int (+ |.x{1083}| .def_288))
(define-fun .def_290 () Bool (= .def_289 (- 4)))
(define-fun .def_322 () Bool (and .def_290 .def_321))
(define-fun .def_285 () Bool (= |.x{1094}| 0))
(define-fun .def_286 () Bool (not .def_285))
(define-fun .def_323 () Bool (and .def_286 .def_322))
(define-fun .def_282 () Int (* (- 1) |.x{1083}|))
(define-fun .def_283 () Int (+ |.x{1068}| .def_282))
(define-fun .def_284 () Bool (= .def_283 4))
(define-fun .def_324 () Bool (and .def_284 .def_323))
(define-fun .def_279 () Bool (= |.x{1083}| |.x{1087}|))
(define-fun .def_325 () Bool (and .def_279 .def_324))
(define-fun .def_278 () Bool (= |.x{1092}| |.x{1101}|))
(define-fun .def_326 () Bool (and .def_278 .def_325))
(define-fun .def_276 () (Array Int Int) (store |.x{151}| |.x{1094}| 1))
(define-fun .def_277 () Bool (= |.x{1070}| .def_276))
(define-fun .def_327 () Bool (and .def_277 .def_326))
(define-fun .def_328 () Bool (or |.x{1028}| .def_327))
(define-fun .def_266 () Bool (and .def_84 |.loc{8}|))
(define-fun .def_267 () Bool (and .def_128 .def_266))
(define-fun .def_268 () Bool (and .def_189 .def_267))
(define-fun .def_269 () Bool (and .def_215 .def_268))
(define-fun .def_270 () Bool (and .def_218 .def_269))
(define-fun .def_271 () Bool (and .def_157 .def_270))
(define-fun .def_272 () Bool (and .def_159 .def_271))
(define-fun .def_274 () Bool (and .def_272 .def_273))
(define-fun .def_329 () Bool (and .def_274 .def_328))
(define-fun .def_343 () Bool (and .def_329 .def_342))
(define-fun .def_428 () Bool (or .def_343 .def_427))
(define-fun .def_120 () Bool (not |.loc{7}|))
(define-fun .def_429 () Bool (and .def_120 .def_428))
(define-fun .def_92 () Bool (and .def_90 .def_91))
(define-fun .def_169 () Bool (and .def_92 .def_94))
(define-fun .def_170 () Bool (and .def_97 .def_169))
(define-fun .def_234 () Bool (and .def_82 .def_170))
(define-fun .def_235 () Bool (and .def_99 .def_234))
(define-fun .def_236 () Bool (and .def_101 .def_235))
(define-fun .def_237 () Bool (and .def_103 .def_236))
(define-fun .def_238 () Bool (and .def_105 .def_237))
(define-fun .def_239 () Bool (and .def_86 .def_238))
(define-fun .def_240 () Bool (and .def_108 .def_239))
(define-fun .def_241 () Bool (and .def_110 .def_240))
(define-fun .def_242 () Bool (and .def_112 .def_241))
(define-fun .def_243 () Bool (and .def_114 .def_242))
(define-fun .def_244 () Bool (and .def_116 .def_243))
(define-fun .def_245 () Bool (and |.loc{7}| .def_244))
(define-fun .def_246 () Bool (and |.loc{8}| .def_245))
(define-fun .def_247 () Bool (and .def_118 .def_246))
(define-fun .def_248 () Bool (and .def_122 .def_247))
(define-fun .def_249 () Bool (and .def_126 .def_248))
(define-fun .def_250 () Bool (and .def_128 .def_249))
(define-fun .def_251 () Bool (and .def_130 .def_250))
(define-fun .def_252 () Bool (and .def_189 .def_251))
(define-fun .def_253 () Bool (and .def_132 .def_252))
(define-fun .def_254 () Bool (and .def_215 .def_253))
(define-fun .def_255 () Bool (and .def_134 .def_254))
(define-fun .def_256 () Bool (and .def_218 .def_255))
(define-fun .def_257 () Bool (and .def_136 .def_256))
(define-fun .def_258 () Bool (and .def_153 .def_257))
(define-fun .def_259 () Bool (and .def_155 .def_258))
(define-fun .def_260 () Bool (and .def_157 .def_259))
(define-fun .def_261 () Bool (and .def_159 .def_260))
(define-fun .def_262 () Bool (and .def_161 .def_261))
(define-fun .def_263 () Bool (and .def_163 .def_262))
(define-fun .def_264 () Bool (and .def_165 .def_263))
(define-fun .def_265 () Bool (and .def_167 .def_264))
(define-fun .def_430 () Bool (or .def_265 .def_429))
(define-fun .def_228 () Bool (not .def_139))
(define-fun .def_227 () Bool (not .def_149))
(define-fun .def_229 () Bool (or .def_227 .def_228))
(define-fun .def_230 () Bool (or .def_82 .def_229))
(define-fun .def_171 () Bool (and .def_99 .def_170))
(define-fun .def_172 () Bool (and .def_101 .def_171))
(define-fun .def_173 () Bool (and .def_103 .def_172))
(define-fun .def_174 () Bool (and .def_105 .def_173))
(define-fun .def_175 () Bool (and .def_86 .def_174))
(define-fun .def_176 () Bool (and .def_108 .def_175))
(define-fun .def_177 () Bool (and .def_110 .def_176))
(define-fun .def_178 () Bool (and .def_112 .def_177))
(define-fun .def_179 () Bool (and .def_114 .def_178))
(define-fun .def_180 () Bool (and .def_116 .def_179))
(define-fun .def_206 () Bool (and |.loc{7}| .def_180))
(define-fun .def_207 () Bool (and |.loc{8}| .def_206))
(define-fun .def_208 () Bool (and .def_118 .def_207))
(define-fun .def_209 () Bool (and .def_122 .def_208))
(define-fun .def_210 () Bool (and .def_126 .def_209))
(define-fun .def_211 () Bool (and .def_128 .def_210))
(define-fun .def_212 () Bool (and .def_130 .def_211))
(define-fun .def_213 () Bool (and .def_189 .def_212))
(define-fun .def_214 () Bool (and .def_132 .def_213))
(define-fun .def_216 () Bool (and .def_214 .def_215))
(define-fun .def_217 () Bool (and .def_134 .def_216))
(define-fun .def_219 () Bool (and .def_217 .def_218))
(define-fun .def_220 () Bool (and .def_136 .def_219))
(define-fun .def_221 () Bool (and .def_153 .def_220))
(define-fun .def_222 () Bool (and .def_155 .def_221))
(define-fun .def_223 () Bool (and .def_157 .def_222))
(define-fun .def_224 () Bool (and .def_159 .def_223))
(define-fun .def_225 () Bool (and .def_161 .def_224))
(define-fun .def_226 () Bool (and .def_163 .def_225))
(define-fun .def_231 () Bool (and .def_226 .def_230))
(define-fun .def_232 () Bool (and .def_165 .def_231))
(define-fun .def_233 () Bool (and .def_167 .def_232))
(define-fun .def_431 () Bool (or .def_233 .def_430))
(define-fun .def_202 () Bool (not .def_201))
(define-fun .def_203 () Bool (or |.x{1028}| .def_202))
(define-fun .def_181 () Bool (and .def_118 .def_180))
(define-fun .def_182 () Bool (and .def_120 .def_181))
(define-fun .def_183 () Bool (and .def_122 .def_182))
(define-fun .def_184 () Bool (and .def_124 .def_183))
(define-fun .def_185 () Bool (and .def_126 .def_184))
(define-fun .def_186 () Bool (and .def_128 .def_185))
(define-fun .def_187 () Bool (and .def_130 .def_186))
(define-fun .def_188 () Bool (and .def_132 .def_187))
(define-fun .def_190 () Bool (and .def_188 .def_189))
(define-fun .def_191 () Bool (and .def_134 .def_190))
(define-fun .def_192 () Bool (and .def_136 .def_191))
(define-fun .def_193 () Bool (and .def_151 .def_192))
(define-fun .def_194 () Bool (and .def_153 .def_193))
(define-fun .def_195 () Bool (and .def_155 .def_194))
(define-fun .def_196 () Bool (and .def_157 .def_195))
(define-fun .def_197 () Bool (and .def_159 .def_196))
(define-fun .def_198 () Bool (and .def_161 .def_197))
(define-fun .def_199 () Bool (and .def_163 .def_198))
(define-fun .def_200 () Bool (and .def_165 .def_199))
(define-fun .def_204 () Bool (and .def_200 .def_203))
(define-fun .def_205 () Bool (and .def_167 .def_204))
(define-fun .def_432 () Bool (or .def_205 .def_431))
(define-fun .def_93 () Bool (and |.x{1028}| .def_92))
(define-fun .def_95 () Bool (and .def_93 .def_94))
(define-fun .def_96 () Bool (and .def_82 .def_95))
(define-fun .def_98 () Bool (and .def_96 .def_97))
(define-fun .def_100 () Bool (and .def_98 .def_99))
(define-fun .def_102 () Bool (and .def_100 .def_101))
(define-fun .def_104 () Bool (and .def_102 .def_103))
(define-fun .def_106 () Bool (and .def_104 .def_105))
(define-fun .def_107 () Bool (and .def_86 .def_106))
(define-fun .def_109 () Bool (and .def_107 .def_108))
(define-fun .def_111 () Bool (and .def_109 .def_110))
(define-fun .def_113 () Bool (and .def_111 .def_112))
(define-fun .def_115 () Bool (and .def_113 .def_114))
(define-fun .def_117 () Bool (and .def_115 .def_116))
(define-fun .def_119 () Bool (and .def_117 .def_118))
(define-fun .def_121 () Bool (and .def_119 .def_120))
(define-fun .def_123 () Bool (and .def_121 .def_122))
(define-fun .def_125 () Bool (and .def_123 .def_124))
(define-fun .def_127 () Bool (and .def_125 .def_126))
(define-fun .def_129 () Bool (and .def_127 .def_128))
(define-fun .def_131 () Bool (and .def_129 .def_130))
(define-fun .def_133 () Bool (and .def_131 .def_132))
(define-fun .def_135 () Bool (and .def_133 .def_134))
(define-fun .def_137 () Bool (and .def_135 .def_136))
(define-fun .def_152 () Bool (and .def_137 .def_151))
(define-fun .def_154 () Bool (and .def_152 .def_153))
(define-fun .def_156 () Bool (and .def_154 .def_155))
(define-fun .def_158 () Bool (and .def_156 .def_157))
(define-fun .def_160 () Bool (and .def_158 .def_159))
(define-fun .def_162 () Bool (and .def_160 .def_161))
(define-fun .def_164 () Bool (and .def_162 .def_163))
(define-fun .def_166 () Bool (and .def_164 .def_165))
(define-fun .def_168 () Bool (and .def_166 .def_167))
(define-fun .def_433 () Bool (or .def_168 .def_432))
(define-fun .def_451 () Bool (! (and .def_433 .def_450) :trans true))
(define-fun .def_470 () Bool (and .def_110 .def_273))
(define-fun .def_471 () Bool (and .def_88 .def_470))
(define-fun .def_472 () Bool (and .def_82 .def_471))
(define-fun .def_473 () Bool (! (not .def_472) :invar-property 0))
(assert true)
